c --- [ banner ] -------------------------------------------------------------
c 
c CaDiCaL Radically Simplified CDCL SAT Solver
c Copyright (c) 2016-2021 A. Biere, M. Fleury, N. Froleyks
c 
c Version 1.5.2 a5f15211db36c3956764e18194dd5bd63bf3b5e6
c g++ (GCC) 9.3.0 -Wall -Wextra -O3 -DNDEBUG
c Fri Oct 21 01:27:37 EDT 2022 Linux gra-login3 3.10.0-1160.66.1.el7.x86_64 x86_64
c 
c --- [ limit ] --------------------------------------------------------------
c 
c setting conflict limit to 200000 conflicts (due to '200000')
c 
c --- [ parsing input ] ------------------------------------------------------
c 
c reading DIMACS file from '33.cubes1107.adj'
c opening file to read '33.cubes1107.adj'
c found 'p cnf 6160 1595469' header
c parsed 1595469 clauses in 20.35 seconds process time
c closing file '33.cubes1107.adj'
c after reading 1457566734 bytes 1390.0 MB
c 
c --- [ options ] ------------------------------------------------------------
c 
c all options are set to their default value
c 
c --- [ solving ] ------------------------------------------------------------
c 
c time measured in process time since initialization
c 
c  seconds    reductions  redundant   irredundant
c          MB     restarts       trail       variables
c            level   conflicts       glue         remaining
c 
c * 20.35 1360  0 0   0    0    0  0% 0 1595422 2515 41%
c { 21.16 1405  0 0   0    0    0  0% 0 1595422 2515 41%
c i 21.66 1416 1047 0   0   16   15 31% 1 1595422 2499 41%
c i 22.30 1438 880 0   1   22   20 29% 2 1595422 2410 39%
c i 22.33 1440 842 0   1   23   20 29% 1 1595422 2401 39%
c i 23.63 1478 691 0   4   36   32 31% 9 1595422 2400 39%
c i 25.18 1495 242 0  18  121   76 24% 15 1595422 2399 39%
c i 25.18 1495 240 0  18  122   76 24% 15 1595422 2398 39%
c i 25.18 1495 238 0  18  123   76 24% 14 1595422 2397 39%
c i 25.18 1495 236 0  18  124   76 24% 14 1595422 2396 39%
c i 25.40 1495 226 0  20  164  102 23% 20 1595422 2392 39%
c i 25.53 1495 225 0  22  176  108 24% 26 1595422 2330 38%
c i 25.69 1496 214 0  26  191  121 24% 26 1595422 2251 37%
c i 25.70 1496 213 0  27  192  121 24% 26 1595422 2250 37%
c i 25.72 1496 210 0  27  194  122 24% 26 1595422 2249 37%
c i 25.73 1496 209 0  28  195  122 24% 26 1595422 2248 36%
c i 25.74 1496 206 0  28  198  124 24% 26 1595422 2247 36%
c i 25.74 1496 204 0  29  200  125 24% 26 1595422 2246 36%
c i 25.74 1496 203 0  29  201  125 24% 25 1595422 2245 36%
c i 25.75 1496 202 0  30  202  125 24% 25 1595422 2244 36%
c 
c  seconds     reductions  redundant    irredundant
c          MB      restarts       trail        variables
c             level   conflicts       glue          remaining
c 
c i 25.81 1496 198 0  31  206  128 24% 25 1595422 2243 36%
c i 25.81 1496 197 0  31  207  128 24% 25 1595422 2242 36%
c i 25.81 1496 196 0  31  208  128 24% 25 1595422 2241 36%
c i 25.81 1496 195 0  32  209  128 24% 25 1595422 2240 36%
c i 25.93 1496 181 0  33  230  144 25% 24 1595422 2239 36%
c i 25.95 1496 181 0  33  234  146 25% 24 1595422 2237 36%
c i 26.08 1496 175 0  36  249  160 25% 26 1595422 2236 36%
c i 26.12 1496 169 0  38  259  169 25% 27 1595422 2235 36%
c i 26.51 1499 158 0  45  282  189 25% 26 1595422 2234 36%
c i 26.71 1499 156 0  47  294  200 26% 27 1595422 2233 36%
c - 30.28 1371 153 1  49  300  200 26% 27 116343 2233 36%
c i 30.53 1371 151 1  50  306  204 26% 27 116343 2232 36%
c i 30.57 1371 149 1  51  311  208 26% 27 116343 2231 36%
c i 30.61 1371 144 1  53  325  218 26% 27 116343 2230 36%
c i 30.62 1371 143 1  54  327  219 26% 27 116343 2229 36%
c i 30.63 1371 141 1  54  331  222 26% 27 116343 2228 36%
c i 30.63 1371 141 1  54  332  222 26% 27 116343 2227 36%
c i 30.64 1371 139 1  54  337  224 26% 27 116343 2226 36%
c i 30.66 1371 138 1  54  339  225 26% 27 116343 2225 36%
c i 30.66 1371 137 1  54  341  226 26% 26 116343 2224 36%
c 
c  seconds     reductions  redundant   irredundant
c          MB      restarts       trail       variables
c             level   conflicts       glue         remaining
c 
c i 30.66 1371 137 1  54  342  226 26% 26 116343 2223 36%
c i 30.66 1371 136 1  54  345  228 26% 26 116343 2222 36%
c i 30.68 1371 134 1  54  352  232 26% 26 116343 2221 36%
c i 30.69 1371 133 1  54  354  233 26% 26 116343 2220 36%
c i 30.69 1371 133 1  54  355  233 26% 26 116343 2219 36%
c i 30.70 1371 132 1  54  356  233 26% 26 116343 2218 36%
c i 30.71 1371 132 1  54  358  234 26% 26 116343 2217 36%
c i 30.73 1371 131 1  54  367  241 26% 26 116343 2216 36%
c i 30.74 1371 131 1  54  372  245 26% 27 116343 2215 36%
c i 30.78 1371 128 1  58  386  257 26% 27 116343 2214 36%
c i 30.78 1371 128 1  58  387  257 26% 27 116343 2213 36%
c i 30.78 1371 127 1  58  388  257 26% 27 116343 2212 36%
c i 30.78 1371 126 1  58  399  263 26% 27 116343 2211 36%
c i 30.84 1371 123 1  62  415  276 26% 27 116343 2210 36%
c i 31.06 1371 123 1  62  448  304 26% 27 116343 2208 36%
c i 31.26 1371 120 1  68  478  327 26% 27 116343 2207 36%
c i 31.27 1371 121 1  68  481  328 26% 28 116343 2206 36%
c i 31.61 1371 123 1  77  510  356 26% 31 116343 2205 36%
c i 31.64 1371 122 1  78  517  359 26% 31 116343 2202 36%
c i 31.78 1371 121 1  81  529  370 27% 31 116343 2201 36%
c 
c  seconds     reductions  redundant   irredundant
c          MB      restarts       trail       variables
c             level   conflicts       glue         remaining
c 
c i 31.78 1371 121 1  81  530  370 27% 31 116343 2200 36%
c i 31.83 1371 120 1  84  541  376 27% 31 116343 2199 36%
c i 31.87 1371 118 1  87  554  385 27% 31 116343 2198 36%
c i 31.87 1371 117 1  87  558  387 27% 31 116343 2197 36%
c i 31.88 1371 116 1  88  564  390 27% 31 116343 2196 36%
c i 31.90 1371 116 1  88  565  390 27% 31 116343 2195 36%
c i 31.95 1371 114 1  88  577  400 27% 31 116343 2194 36%
c i 32.04 1371 108 1  88  615  424 27% 30 116343 2193 36%
c i 32.06 1371 107 1  88  625  431 27% 30 116343 2192 36%
c i 32.16 1371 101 1  88  671  465 27% 29 116343 2191 36%
c i 32.31 1371 86 1  88  827  569 28% 27 116343 2190 36%
c i 32.32 1371 85 1  88  831  572 28% 27 116343 2189 36%
c - 32.85 1411 78 2  88  941  551 28% 26 116222 2189 36%
c } 32.94 1411 75 2  88 1001  599 28% 26 116222 2189 36%
c [ 32.95 1411  0 2  88 1001  599  0% 0 116222 2189 36%
c O 32.95 1411  4 2  88 1002  600 18% 3 116222 2189 36%
c i 33.00 1411  3 2  88 1004  601 27% 1 116222 2188 36%
c i 33.00 1411  2 2  88 1005  601 28% 1 116222 2187 36%
c i 33.01 1411  9 2  88 1007  602 28% 7 116222 2186 35%
c i 33.02 1411 21 2  88 1013  607 29% 16 116222 2185 35%
c 
c  seconds    reductions  redundant   irredundant
c          MB     restarts       trail       variables
c            level   conflicts       glue         remaining
c 
c i 33.02 1411 21 2  88 1015  608 29% 16 116222 2184 35%
c i 33.04 1411 27 2  88 1043  632 30% 23 116222 2183 35%
c i 33.05 1411 27 2  88 1046  634 30% 22 116222 2182 35%
c i 33.07 1411 27 2  88 1054  638 30% 22 116222 2181 35%
c i 33.07 1411 27 2  88 1060  641 30% 23 116222 2180 35%
c i 33.09 1411 28 2  88 1086  652 29% 24 116222 2179 35%
c i 33.10 1411 28 2  88 1090  654 29% 23 116222 2178 35%
c i 33.11 1411 28 2  88 1108  666 30% 23 116222 2177 35%
c i 33.12 1411 27 2  88 1124  674 30% 23 116222 2176 35%
c i 33.13 1411 27 2  88 1137  683 29% 23 116222 2175 35%
c i 33.15 1411 28 2  88 1151  695 30% 23 116222 2174 35%
c i 33.15 1411 28 2  88 1153  696 30% 23 116222 2173 35%
c i 33.15 1411 28 2  88 1155  697 30% 23 116222 2172 35%
c ] 33.16 1411 28 2  88 1161  700 30% 23 116222 2172 35%
c 1 33.16 1411 28 2  88 1161  700 30% 23 116222 2172 35%
c 
c --- [ writing output ] -----------------------------------------------------
c 
c writing simplified CNF to DIMACS file 'simp/33.cubes1107.adj.simp1'
c * 33.16 1411 28 2  88 1161  700 30% 23 116222 2172 35%
c opening file to write 'simp/33.cubes1107.adj.simp1'
c writing 'p cnf 6160 116174' header
c closing file 'simp/33.cubes1107.adj.simp1'
c after writing 45075848 bytes 43.0 MB
c wrote 116174 clauses in 0.37 seconds process time
c 
c --- [ writing extension ] --------------------------------------------------
c 
c writing extension stack to 'simp/33.cubes1107.adj.ext1'
c opening file to write 'simp/33.cubes1107.adj.ext1'
c closing file 'simp/33.cubes1107.adj.ext1'
c after writing 12596 bytes 0.0 MB
c wrote 844 witnesses in 0.00 seconds process time
c 
c --- [ result ] -------------------------------------------------------------
c 
s SATISFIABLE
c 
c --- [ run-time profiling ] -------------------------------------------------
c 
c process time taken by individual solving procedures
c (percentage relative to process time for solving)
c 
c        20.35  158.87% parse
c        12.81  100.00% search
c        11.78   91.99% unstable
c         0.81    6.31% lucky
c         0.22    1.71% stable
c         0.00    0.00% simplify
c   =================================
c        12.81   38.20% solve
c 
c last line shows process time for solving
c (percentage relative to total process time)
c 
c --- [ statistics ] ---------------------------------------------------------
c 
c chronological:               415        35.75 %  of conflicts
c conflicts:                  1161        90.63    per second
c decisions:                 19487      1521.20    per second
c fixed:                       844        13.70 %  of all variables
c learned:                    1122        96.64 %  per conflict
c learned_lits:             149231       100.00 %  learned literals
c minimized:                     0         0.00 %  learned literals
c shrunken:                  94999        63.66 %  learned literals
c minishrunken:               6419         4.30 %  learned literals
c propagations:             240679         0.02 M  per second
c reduced:                      99         8.53 %  per conflict
c rephased:                      1      1161.00    interval
c restarts:                     88        13.19    interval
c stabilizing:                   1        13.78 %  of conflicts
c subsumed:                    225         0.01 %  of all clauses
c 
c seconds are measured in process time for solving
c 
c --- [ resources ] ----------------------------------------------------------
c 
c total process time since initialization:        33.53    seconds
c total real time since initialization:           33.71    seconds
c maximum resident set size of process:         1498.98    MB
c 
c --- [ shutting down ] ------------------------------------------------------
c 
c exit 10
WARNING! DIMACS header mismatch: wrong number of variables.
============================[ Problem Statistics ]=============================
|                                                                             |
|  Number of variables:          6120                                         |
|  Number of clauses:          116174                                         |
|  Parse time:                   0.62 s                                       |
|  Simplification time:          0.01 s                                       |
|                                                                             |
============================[ Search Statistics ]====================================================
| Conflicts |          ORIGINAL         |          LEARNT          | Num Sols |      SUBGRAPHS      |
|           |    Vars  Clauses Literals |    Limit  Clauses Lit/Cl |          | Canonical Noncanon. |
=====================================================================================================
|       132 |    6023   116206  9850362 |     2000      131     47 |        0 |        40        32 |
|       450 |    6023   116374  9852734 |     2000      449     23 |        0 |        92       200 |
|      1049 |    6023   116748  9858160 |     2000     1048     18 |        0 |       270       574 |
|      1991 |    6023   117353  9866312 |     2000     1990     15 |        0 |       547      1179 |
|      3671 |    6023   118527  9877699 |     3600     2671     10 |        0 |      1038      2353 |
|      5786 |    6023   119883  9892815 |     5002     2988      9 |        0 |      1465      3709 |
|     10653 |    6023   123611  9935481 |     6303     5356     10 |        0 |      2160      7437 |
|     16449 |    6023   127699  9984504 |     8778     4227      8 |        0 |      3319     11525 |
|     24095 |    5984   132783 10047515 |     9986     7479      9 |        0 |      4031     16609 |
=====================================================================================================
Number of solutions   : 0
Canonical subgraphs   : 4222           (131 /sec)
          order  3    : 1              (200000 /sec)
          order  4    : 1              (500000 /sec)
          order  5    : 1              (250000 /sec)
          order  6    : 1              (55556 /sec)
          order  7    : 2              (10000 /sec)
          order  8    : 6              (2559 /sec)
          order  9    : 16             (603 /sec)
          order 10    : 81             (237 /sec)
          order 11    : 485            (166 /sec)
          order 12    : 3410           (131 /sec)
          order 13    : 179            (130 /sec)
          order 14    : 19             (36 /sec)
          order 15    : 12             (26 /sec)
          order 16    : 6              (19 /sec)
          order 17    : 2              (21 /sec)
          order 18    : 0              (-nan /sec)
          order 19    : 0              (-nan /sec)
          order 20    : 0              (-nan /sec)
          order 21    : 0              (-nan /sec)
          order 22    : 0              (-nan /sec)
Noncanonical subgraphs: 19033          (848 /sec)
          order  3    : 0              (-nan /sec)
          order  4    : 0              (-nan /sec)
          order  5    : 0              (-nan /sec)
          order  6    : 0              (-nan /sec)
          order  7    : 0              (-nan /sec)
          order  8    : 0              (-nan /sec)
          order  9    : 0              (-nan /sec)
          order 10    : 0              (-nan /sec)
          order 11    : 0              (-nan /sec)
          order 12    : 0              (-nan /sec)
          order 13    : 18490          (845 /sec)
          order 14    : 467            (1170 /sec)
          order 15    : 51             (472 /sec)
          order 16    : 19             (305 /sec)
          order 17    : 6              (75949 /sec)
          order 18    : 0              (-nan /sec)
          order 19    : 0              (-nan /sec)
          order 20    : 0              (-nan /sec)
          order 21    : 0              (-nan /sec)
Canonicity checking   : 32.1411 s
Noncanonicity checking: 22.4523 s
Total canonicity time : 54.5933 s
database reductions   : 7
restarts              : 100
conflicts             : 27954          (472 /sec)
decisions             : 64779          (0.00 % random) (1094 /sec)
propagations          : 3134329        (52920 /sec)
conflict literals     : 352034         (58.99 % deleted)
actual reward         : 0.041164
Memory used           : 61.00 MB
CPU time              : 59.2276 s

UNSATISFIABLE
